PROBLEM NAME: eil51_n7
KNAPSACK DATA TYPE: multiple strongly correlated
DIMENSION: 7
NUMBER OF ITEMS: 30
CAPACITY OF KNAPSACK: 14308
MIN SPEED: 0.1
MAX SPEED: 1
RENTING RATIO: 28.55
EDGE_WEIGHT_TYPE: CEIL_2D
NODE_COORD_SECTION	(INDEX, X, Y):
1	42	57
2	7	38
3	30	48
4	45	35
5	5	6
6	56	37
7	30	40
ITEMS SECTION	(INDEX, PROFIT, WEIGHT, ASSIGNED NODE NUMBER):
1	1171	971	3
2	1103	903	3
3	1098	898	3
4	1091	891	3
5	1067	867	3
6	1032	832	7
7	1008	808	7
8	1001	801	7
9	927	727	7
10	910	710	7
11	832	632	2
12	802	602	2
13	772	572	2
14	748	548	2
15	737	537	2
16	718	518	5
17	714	514	5
18	634	434	5
19	631	431	5
20	583	383	5
21	583	383	4
22	543	343	4
23	481	281	4
24	472	272	4
25	438	138	4
26	418	218	6
27	412	212	6
28	316	116	6
29	306	106	6
30	291	91	6
